NAME : rat99.tsp
TYPE : TOUR
DIMENSION : 99
TOUR_LENGTH : 1331.982871316225
TOUR_SECTION
1
2
10
11
12
13
22
21
20
19
28
37
29
38
46
47
49
48
39
40
30
31
32
33
34
43
42
41
50
51
52
53
62
61
60
59
58
57
56
55
64
65
66
67
68
69
78
77
76
75
74
73
82
83
84
85
86
88
87
95
93
91
92
94
96
97
98
99
90
89
79
81
80
70
71
72
63
54
45
44
36
35
27
26
25
24
23
15
16
17
18
9
8
7
6
5
14
4
3
-1
